StringID Type x y demand ReadyTime DueDate ServiceTime
D0 d 40 50.0 0.0 0.0 3390.0 0.0
Dt d 40 50.0 0.0 0.0 3390.0 0.0
C35 c1 5 35.0 10.0 1954.0 2536.0 90.0
C53 c3 44 5.0 20.0 1442.0 2060.0 90.0
C44 c1 32 20.0 10.0 693.0 1215.0 90.0
C77 c1 72 45.0 10.0 1419.0 1969.0 90.0
C75 c1 45 65.0 20.0 948.0 1570.0 90.0
P0 p 25 51.0 0.0 0.0 3390.0 45.0
param CV := 700.0 nan nan nan nan
param V := 1.0 nan nan nan nan
